Test: battleship-14-26-sat.cnf
Options: -no-inverting-opt
WARNING: for repeatability, setting FPU to use double precision
============================[ Problem Statistics ]=============================
|                                                                             |
|  Number of symmetries:           17                                         |
|  Number of invertingSyms:         0                                         |
|  Number of variables:           364                                         |
|  Number of clauses:            2562                                         |
|  Parse time:                   0.00 s                                       |
|                                                                             |
============================[ Search Statistics ]==============================
| Conflicts |          ORIGINAL         |          LEARNT          | Progress |
|           |    Vars  Clauses Literals |    Limit  Clauses Lit/Cl |          |
===============================================================================
|       100 |     364     2562     9828 |      939      128    194 |  0.001 % |
|       250 |     364     2562     9828 |     1033      298    153 |  0.001 % |
|       475 |     364     2562     9828 |     1136      588    131 |  0.001 % |
|       812 |     364     2562     9828 |     1250     1009    135 |  0.001 % |
|      1318 |     364     2562     9828 |     1375      956    119 |  0.001 % |
|      2077 |     364     2562     9828 |     1512     1192    115 |  0.001 % |
|      3216 |     364     2562     9828 |     1664      952    125 |  0.001 % |
|      4924 |     364     2562     9828 |     1830     1394    118 |  0.001 % |
|      7486 |     364     2562     9828 |     2013     1691    131 |  0.001 % |
|     11330 |     364     2562     9828 |     2215     1328    141 |  0.001 % |
|     17096 |     364     2562     9828 |     2436     1672    144 |  0.001 % |
|     25745 |     364     2562     9828 |     2680     2302    149 |  0.001 % |
|     38719 |     364     2562     9828 |     2948     1610    154 |  0.001 % |
|     58180 |     364     2562     9828 |     3243     2970    152 |  0.001 % |
|     87372 |     364     2562     9828 |     3567     2395    151 |  0.001 % |
|    131161 |     364     2562     9828 |     3924     1920    144 |  0.001 % |
|    196845 |     364     2562     9828 |     4316     3153    144 |  0.001 % |
|    295371 |     364     2562     9828 |     4748     3524    146 |  0.001 % |
|    443160 |     364     2562     9828 |     5222     2527    148 |  0.001 % |
|    664843 |     364     2562     9828 |     5745     2865    159 |  0.001 % |
|    997368 |     364     2562     9828 |     6319     5478    150 |  0.001 % |
|   1496156 |     364     2562     9828 |     6951     4094    145 |  0.001 % |
|   2244338 |     364     2562     9828 |     7646     6584    148 |  0.001 % |
|   3366612 |     364     2562     9828 |     8411     6175    168 |  0.001 % |
|   5050023 |     364     2562     9828 |     9252     5566    167 |  0.001 % |
|   7575139 |     364     2562     9828 |    10178     7160    161 |  0.001 % |
===============================================================================
restarts              : 16381
conflicts             : 10228195       (13988 /sec)
symconflicts          : 625892         (856 /sec)
decisions             : 17825596       (0.00 % random) (24377 /sec)
propagations          : 230079786      (314644 /sec)
sympropagations       : 2476104        (3386 /sec)
conflict literals     : 1640890648     (5.46 % deleted)
literals     : 1640890648     (5.46 % deleted)

HEURISTIC USAGES
random                : 0           
activity w/ lookahead : 0           
activity no lookahead : 0           
original sp           : 17825595    
sym count             : 0           

Memory used           : 49.00 MB
CPU time              : 731.238 s

SATISFIABLE
